sat
(
(define-fun sym205 () String "Y")
(define-fun sym547 () String "G")
(define-fun sym4639 () String "G")
(define-fun sym1028 () String "G")
(define-fun sym3789 () String "G")
(define-fun sym4855 () String "G")
(define-fun sym161 () String "A")
(define-fun sym2092 () String "G")
(define-fun sym812 () String "G")
(define-fun sym2308 () String "H")
(define-fun sym1659 () String "G")
(define-fun sym1876 () String "L")
(define-fun sym2943 () String "G")
(define-fun sym2525 () String "G")
(define-fun sym5438 () String "G")
(define-fun sym3577 () String "L")
(define-fun sym1234 () String "G")
(define-fun sym3159 () String "G")
(define-fun sym4005 () String "G")
(define-fun sym2741 () String "G")
(define-fun sym4423 () String "G")
(define-fun sym5058 () String "G")
(define-fun sym1450 () String "G")
(define-fun sym3375 () String "G")
(define-fun sym4221 () String "G")
(define-fun sym5252 () String "G")
)
